Route #1: 30 74 28 61 21 48 29 45 27 52
Route #2: 4 5 47 36 69 71 60 70 20 37 15 57 13 54 19
Route #3: 14 59 66 65 38 10 31 72 58 17
Route #4: 26 7 11 53 35 8 46 34 67
Route #5: 40 3 44 32 50 18 55 25 9 39 12
Route #6: 24 49 23 56 41 43 42 64 22 1 73 62 2
Route #7: 51 16 63 33 6 68 75
Cost 728